p tdp 93 92
50 76
47 86
78 7
68 61
6 63
51 89
51 40
72 38
78 90
9 20
74 55
12 29
62 21
40 72
4 87
70 17
44 33
33 3
78 6
18 58
59 53
78 64
49 15
23 48
20 84
77 22
7 54
83 85
83 58
91 26
41 19
42 25
16 14
45 37
82 66
77 4
31 69
88 64
42 1
70 71
24 79
76 81
23 72
36 56
46 92
35 10
8 29
30 23
81 53
26 74
58 28
52 55
44 32
43 16
25 67
79 43
34 68
58 21
62 57
11 5
28 65
84 41
8 27
36 39
47 64
57 93
28 36
7 49
43 72
45 69
91 56
32 45
19 46
7 60
4 13
82 75
89 1
42 39
2 35
51 34
35 71
71 59
71 69
73 4
64 11
80 15
43 87
27 82
92 29
47 16
45 82
59 87
